; https=//exceljet.net/formula/split-text-string-at-specific-character
(set-logic SLIA)
(synth-fun f ((_arg_0 String) (_arg_1 Int)) String 
 ( (Start String (ntString)) 
 (ntString String (
	_arg_0
	"" " " "_"
	(str.++ ntString ntString) 
	(str.replace ntString ntString ntString) 
	(str.at ntString ntInt)
	(int.to.str ntInt)
	(ite ntBool ntString ntString)
	(str.substr ntString ntInt ntInt)
)) 
 (ntInt Int (
	_arg_1
	1 0 -1 1 2
	(+ ntInt ntInt)
	(- ntInt ntInt)
	(str.len ntString)
	(str.to.int ntString)
	(ite ntBool ntInt ntInt)
	(str.indexof ntString ntString ntInt)
)) 
 (ntBool Bool (
	
	true false
	(= ntInt ntInt)
	(str.prefixof ntString ntString)
	(str.suffixof ntString ntString)
	(str.contains ntString ntString)
)) ))
(constraint (= (f "011016_assignment.xlsx" 1) "011016"))
(constraint (= (f "011016_assignment.xlsx" 2) "assignment.xlsx"))
(constraint (= (f "030116_cost.xlsx" 1) "030116"))
(constraint (= (f "030116_cost.xlsx" 2) "cost.xlsx"))
(check-synth)
